% Auto-generated by scripts/generate_dzn.py
% problem_type   = regex
% instance       = regex_65
% source_json    = instances_json/1_medium_blowup/regex_65.json
% blowup         = 3.611111111111111
% representation = DFA

mode = 0;

var_count = 14;
n_constraints = 2;
Q = 55;
S = 2;
q0 = [1, 1];
F = [{35, 36, 37, 38, 39, 40, 41, 42, 43, 44, 45, 46, 47, 48, 49, 50, 51, 52, 53, 54, 55}, {9}];
weights = [7, 5, 4, 3, 3, 1, 3, 5, 7, 3, 10, 8, 8, 10];
d_dfa = array3d(1..2, 1..55, 1..2, [
  % k = 1
    1, 2,
    3, 2,
    4, 5,
    6, 7,
    8, 7,
    9, 10,
    11, 10,
    12, 13,
    14, 15,
    16, 15,
    17, 18,
    19, 20,
    21, 20,
    22, 23,
    24, 23,
    25, 26,
    27, 28,
    29, 28,
    30, 31,
    32, 31,
    33, 34,
    35, 36,
    37, 36,
    38, 39,
    40, 41,
    42, 41,
    43, 44,
    45, 44,
    46, 47,
    48, 49,
    50, 49,
    51, 52,
    53, 54,
    55, 54,
    1, 2,
    3, 2,
    4, 5,
    6, 7,
    8, 7,
    9, 10,
    11, 10,
    12, 13,
    14, 15,
    16, 15,
    17, 18,
    19, 20,
    21, 20,
    22, 23,
    24, 23,
    25, 26,
    27, 28,
    29, 28,
    30, 31,
    32, 31,
    33, 34,

  % k = 2
    2, 1,
    3, 2,
    4, 3,
    5, 4,
    6, 5,
    7, 6,
    8, 7,
    9, 8,
    10, 9,
    10, 10,
    0, 0,
    0, 0,
    0, 0,
    0, 0,
    0, 0,
    0, 0,
    0, 0,
    0, 0,
    0, 0,
    0, 0,
    0, 0,
    0, 0,
    0, 0,
    0, 0,
    0, 0,
    0, 0,
    0, 0,
    0, 0,
    0, 0,
    0, 0,
    0, 0,
    0, 0,
    0, 0,
    0, 0,
    0, 0,
    0, 0,
    0, 0,
    0, 0,
    0, 0,
    0, 0,
    0, 0,
    0, 0,
    0, 0,
    0, 0,
    0, 0,
    0, 0,
    0, 0,
    0, 0,
    0, 0,
    0, 0,
    0, 0,
    0, 0,
    0, 0,
    0, 0,
    0, 0
]);
d_nfa = array3d(1..2, 1..55, 1..2, [
  % k = 1
    {}, {},
    {}, {},
    {}, {},
    {}, {},
    {}, {},
    {}, {},
    {}, {},
    {}, {},
    {}, {},
    {}, {},
    {}, {},
    {}, {},
    {}, {},
    {}, {},
    {}, {},
    {}, {},
    {}, {},
    {}, {},
    {}, {},
    {}, {},
    {}, {},
    {}, {},
    {}, {},
    {}, {},
    {}, {},
    {}, {},
    {}, {},
    {}, {},
    {}, {},
    {}, {},
    {}, {},
    {}, {},
    {}, {},
    {}, {},
    {}, {},
    {}, {},
    {}, {},
    {}, {},
    {}, {},
    {}, {},
    {}, {},
    {}, {},
    {}, {},
    {}, {},
    {}, {},
    {}, {},
    {}, {},
    {}, {},
    {}, {},
    {}, {},
    {}, {},
    {}, {},
    {}, {},
    {}, {},
    {}, {},

  % k = 2
    {}, {},
    {}, {},
    {}, {},
    {}, {},
    {}, {},
    {}, {},
    {}, {},
    {}, {},
    {}, {},
    {}, {},
    {}, {},
    {}, {},
    {}, {},
    {}, {},
    {}, {},
    {}, {},
    {}, {},
    {}, {},
    {}, {},
    {}, {},
    {}, {},
    {}, {},
    {}, {},
    {}, {},
    {}, {},
    {}, {},
    {}, {},
    {}, {},
    {}, {},
    {}, {},
    {}, {},
    {}, {},
    {}, {},
    {}, {},
    {}, {},
    {}, {},
    {}, {},
    {}, {},
    {}, {},
    {}, {},
    {}, {},
    {}, {},
    {}, {},
    {}, {},
    {}, {},
    {}, {},
    {}, {},
    {}, {},
    {}, {},
    {}, {},
    {}, {},
    {}, {},
    {}, {},
    {}, {},
    {}, {}
]);
